N = 50;
MinK = 5;
Capacity = 1000;

Scale = 10;
DistanceRoundingMode = Floor;
X = array1d(0..N, [40, 25, 22, 22, 20, 20, 18, 15, 15, 10, 10, 8, 8, 5, 5, 2, 0, 0, 44, 42, 42, 40, 40, 38, 38, 35, 95, 95, 92, 90, 88, 88, 87, 85, 85, 67, 65, 65, 62, 60, 60, 58, 55, 55, 55, 20, 18, 2, 42, 42, 72]);
Y = array1d(0..N, [50, 85, 75, 85, 80, 85, 75, 75, 80, 35, 40, 40, 45, 35, 45, 40, 40, 45, 5, 10, 15, 5, 15, 5, 15, 5, 30, 35, 30, 35, 30, 35, 30, 25, 35, 85, 85, 82, 80, 80, 85, 75, 80, 85, 82, 82, 80, 45, 5, 12, 35]);

Demands = array1d(1..N, [20, 30, 10, 40, 20, 20, 20, 10, 20, 30, 40, 20, 10, 10, 20, 20, 20, 20, 40, 10, 10, 40, 30, 10, 20, 30, 20, 10, 10, 10, 20, 10, 10, 30, 20, 40, 10, 30, 10, 30, 20, 10, 20, 10, 10, 10, 10, 10, 10, 30]);

ServiceTimes = array1d(1..N, [10, 10, 10, 10, 10, 10, 10, 10, 10, 10, 10, 10, 10, 10, 10, 10, 10, 10, 10, 10, 10, 10, 10, 10, 10, 10, 10, 10, 10, 10, 10, 10, 10, 10, 10, 10, 10, 10, 10, 10, 10, 10, 10, 10, 10, 10, 10, 10, 10, 10]);

TimeWindows = array2d(1..2, 0..N, [|
    0,   0,   0,   0, 644,   0, 388,   0, 367, 371, 519, 195,   0, 653,  35, 174, 255, 703, 335, 254, 537,   0, 375, 201, 681, 784,   0, 146, 149, 194, 246,   0, 621,  80,   0, 657,  43,   0, 278,  64, 329, 376,  33, 574, 217,  37, 489, 105,   0, 440,   0 |
  960, 911, 919, 910, 764, 909, 508, 914, 487, 491, 639, 315, 917, 773, 155, 294, 375, 823, 455, 374, 657, 905, 495, 321, 801, 904, 891, 266, 269, 314, 366, 899, 741, 200, 902, 777, 163, 909, 398, 184, 449, 496, 153, 694, 337, 157, 609, 225, 904, 560, 914
|]);
